x = 18;
y = 12;
c = 72;
n = 56;

p = [39  93  82  70  90  30  25  57  72  51  75  71  93  18  83  77  71  82  94  68  51  77  87  81  25  86  56  15  86  79  22  51  48  14  32  59  67  74  21  70  41  31  15  85  77  44  18  43  25  49  77  83  10  79  46  74];
w = [5  10  9  10  8  3  8  1  8  9  3  9  9  6  4  1  8  5  9  5  7  3  9  1  1  3  2  4  5  8  3  1  9  10  8  8  7  3  8  5  6  4  10  10  3  4  8  7  4  1  10  1  3  2  3  4];
s = [9  11  5  11  8  7  8  6  7  10  3  1  1  3  8  12  3  4  6  3  3  6  12  8  10  6  8  1  4  8  12  6  9  3  7  9  1  10  10  10  5  10  10  10  8  12  9  8  5  1  1  9  11  1  12  5];
